
  22   10
  10   10   10   10   10   10   10   10   10   10

   0   0   0   0   0   0   0   0   0   0   0   8 2 4 5 6 18 19 20 21 
   9   0   0   0   0   0   0   0   0  10   0   2 15 3 
   6   0   0   0  10   0   0   0   0   0   0   3 16 14 7 
   7   0   0  10   0   0   0   0   0   0   0   3 11 10 8 
   8   0   0   0   0   0   0   0  10   0   0   3 17 10 8 
   2   0   0   0   0   0   0   0   0  10   0   2 15 8 
   4   0   0   0   0   0   0   0  10   0   0   1 8 
   6   0   0  10   0   0   0   0   0   0   0   2 12 9 
   9   0   0   0   0   0   0   0   0  10   0   1 13 
   2   0   0   0   0   0   0   0  10   0   0   1 12 
   9   0   0   0   0   0   0   0   0   0  10   1 14 
   5   0   0   0   0   0   0   0   0  10   0   1 22
   2   0  10   0   0   0   0   0   0   0   0   1 22
   8   0   0  10   0   0   0   0   0   0   0   1 22
   7   0   0   0  10   0   0   0   0   0   0   1 22
   7   0   0   0   0   0   0  10   0   0   0   1 22
   4   0  10   0   0   0   0   0   0   0   0   1 22
   4   0   0   0   0   0   0   0   0  10   0   1 22
  10   0   0  10   0   0   0   0   0   0   0   1 22
   4   0   0   0   0   0  10   0   0   0   0   1 22
   5  10   0   0   0   0   0   0   0   0   0   1 22
   0   0   0   0   0   0   0   0   0   0   0   0 
